GLPSOL: GLPK LP/MIP Solver, v4.48
Parameter(s) specified in the command line:
 --model standardForm.model --data ex1.data
Reading model section from standardForm.model...
22 lines were read
Reading data section from ex1.data...
ex1.data:19: warning: unexpected end of file; missing end statement inserted
19 lines were read
Generating obj...
Generating constr...
Model has been successfully generated
GLPK Simplex Optimizer, v4.48
5 rows, 2 columns, 8 non-zeros
Preprocessing...
2 rows, 2 columns, 4 non-zeros
Scaling...
 A: min|aij| =  1.000e+00  max|aij| =  3.000e+00  ratio =  3.000e+00
Problem data seem to be well scaled
Constructing initial basis...
Size of triangular part = 2
*     0: obj =   0.000000000e+00  infeas =  0.000e+00 (0)
*     3: obj =   2.800000000e+01  infeas =  0.000e+00 (0)
OPTIMAL SOLUTION FOUND
Time used:   0.0 secs
Memory used: 0.1 Mb (130844 bytes)
Display statement at line 20
x[1].val = 6
x[2].val = 11
Model has been successfully processed
